c File: data_files/evolved_graphs/g5447.col
c
c Auto generated graph
c
p edge 100 23
e 1 4
e 1 61
e 1 62
e 2 4
e 2 45
e 2 61
e 2 62
e 3 4
e 3 55
e 3 57
e 3 58
e 3 59
e 3 60
e 3 62
e 5 50
e 6 24
e 8 24
e 9 24
e 10 50
e 24 26
e 24 27
e 24 28
e 24 29
